3890.15 0
0 46 41 44 43 38 40 49 45 101 104 149 144 92 79 80 0
0 58 66 74 65 71 133 0
0 109 97 146 138 139 0
0 6 1 14 2 16 5 17 0
0 132 134 115 123 127 120 0
0 106 100 15 4 10 3 9 12 11 8 7 108 99 103 112 57 54 55 60 0
0 107 110 150 13 148 147 142 89 78 83 87 90 0
0 61 136 129 130 131 126 128 116 73 67 72 105 98 145 0
0 53 51 42 48 50 47 39 68 70 69 62 63 0
0 111 102 137 76 77 85 82 81 91 84 140 141 143 0
0 18 21 22 35 26 119 124 113 114 117 122 118 0
0 75 88 86 93 95 96 94 0
0 52 59 56 64 33 0
0 27 36 24 29 37 135 121 125 31 32 30 0
0 20 28 19 23 25 34 0